(set-logic HORN)
(declare-fun state (Int Int (Array Int Int) (Array Int Int) Int Int Int Int Bool Bool Bool Bool (Array Int Int) Int Int Bool Int Bool Bool Int (Array Int Int) (Array Int Int) Bool Bool) Bool)
(assert (forall ((|.y.11| Int) (|.y.12| Int) (|E_3| (Array Int Int)) (|L_3| (Array Int Int)) (|K_3| Int) (|D_3| Int) (|J_3| Int) (|A_4| Int) (|.loc.13| Bool) (|.loc.14| Bool) (|I_2| Bool) (|J_2| Bool) (|O_0| (Array Int Int)) (|F_3| Int) (|F_2| Int) (|B_3| Bool) (|E_2| Int) (|G_2| Bool) (|H_2| Bool) (|M_2| Int) (|H_0| (Array Int Int)) (|L_0| (Array Int Int)) (|L_2| Bool) (|K_2| Bool) (|.loc.23| Bool) (|.y.20| Int) (|.y.21| Int) (|.y.17| (Array Int Int)) (|.y.18| (Array Int Int)) (|.y.19| Int) (|.y.22| Int) (|.loc.24| Bool) (|.y.15| Int) (|.y.16| Int) (|.xtv.1| Bool) (|.xtv.2| Bool) (|.xtv.3| (Array Int Int)) (|.xtv.4| Int) (|.xtv.5| Int) (|.xtv.6| Bool) (|.xtv.7| Int) (|.xtv.8| Bool) (|.xtv.9| Bool) (|.xtv.10| Int) (|.xtv.11| (Array Int Int)) (|.xtv.12| (Array Int Int)) (|.xtv.13| Bool) (|.xtv.14| Bool)) (=> (and (not .loc.13) (not .loc.14)) (state |.y.11| |.y.12| |E_3| |L_3| |K_3| |D_3| |J_3| |A_4| |.loc.13| |.loc.14| |I_2| |J_2| |O_0| |F_3| |F_2| |B_3| |E_2| |G_2| |H_2| |M_2| |H_0| |L_0| |L_2| |K_2|))))
(assert (forall ((|.y.11| Int) (|.y.12| Int) (|E_3| (Array Int Int)) (|L_3| (Array Int Int)) (|K_3| Int) (|D_3| Int) (|J_3| Int) (|A_4| Int) (|.loc.13| Bool) (|.loc.14| Bool) (|I_2| Bool) (|J_2| Bool) (|O_0| (Array Int Int)) (|F_3| Int) (|F_2| Int) (|B_3| Bool) (|E_2| Int) (|G_2| Bool) (|H_2| Bool) (|M_2| Int) (|H_0| (Array Int Int)) (|L_0| (Array Int Int)) (|L_2| Bool) (|K_2| Bool) (|.loc.23| Bool) (|.y.20| Int) (|.y.21| Int) (|.y.17| (Array Int Int)) (|.y.18| (Array Int Int)) (|.y.19| Int) (|.y.22| Int) (|.loc.24| Bool) (|.y.15| Int) (|.y.16| Int) (|.xtv.1| Bool) (|.xtv.2| Bool) (|.xtv.3| (Array Int Int)) (|.xtv.4| Int) (|.xtv.5| Int) (|.xtv.6| Bool) (|.xtv.7| Int) (|.xtv.8| Bool) (|.xtv.9| Bool) (|.xtv.10| Int) (|.xtv.11| (Array Int Int)) (|.xtv.12| (Array Int Int)) (|.xtv.13| Bool) (|.xtv.14| Bool)) (=> (and (state |.y.11| |.y.12| |E_3| |L_3| |K_3| |D_3| |J_3| |A_4| |.loc.13| |.loc.14| |I_2| |J_2| |O_0| |F_3| |F_2| |B_3| |E_2| |G_2| |H_2| |M_2| |H_0| |L_0| |L_2| |K_2|) (let ((.def_34 (not .loc.13))) (let ((.def_35 (not .loc.14))) (let ((.def_37 (select E_3 F_3))) (let ((.def_42 (not (<= F_3 0)))) (let ((.def_43 (<= D_3 0))) (let ((.def_50 (not (<= M_2 0)))) (let ((.def_51 (<= K_3 0))) (let ((.def_62 (= (+ D_3 (+ J_3 (* (- 1) F_3))) 0))) (let ((.def_63 (not .def_43))) (let ((.def_66 (not .def_51))) (let ((.def_69 (not (<= A_4 J_3)))) (let ((.def_83 (not .loc.23))) (let ((.def_87 (<= A_4 .y.11))) (let ((.def_90 (= E_3 .y.17))) (let ((.def_93 (= L_3 .y.18))) (let ((.def_96 (= K_3 .y.19))) (let ((.def_100 (= A_4 .y.22))) (let ((.def_103 (not J_2))) (let ((.def_108 (not G_2))) (let ((.def_133 (not K_2))) (let ((.def_137 (not H_2))) (let ((.def_177 (= D_3 .y.20))) (let ((.def_193 (not .loc.24))) (let ((.def_204 (<= J_3 0))) (let ((.def_205 (not I_2))) (let ((.def_217 (or .def_103 .def_205))) (or (or (and (or (or (and (and .def_34 (and .loc.14 (and (= .def_37 10) (and (or .def_42 .def_43) (and (not (= (select L_3 M_2) 20)) (and (or .def_50 .def_51) (and (and (and (= (+ K_3 (+ J_3 (* (- 1) M_2))) 0) (and .def_62 .def_63)) .def_66) .def_69))))))) .loc.23) (and (and (= J_3 .y.20) (and (and (and (and (and (= .y.21 0) (and .def_35 (and .loc.13 .def_83))) .def_87) .def_90) .def_93) .def_96)) .def_100)) (and (and (or .def_42 (or .def_43 .def_103)) (and (or (not (<= E_2 0)) (or .def_51 .def_108)) (and (or .def_108 (= (+ K_3 (+ J_3 (* (- 1) E_2))) 0)) (and (or .def_108 (= F_2 (select L_3 E_2))) (and (or .def_66 .def_108) (and (or .def_103 (= L_2 (= M_2 10))) (and (or .def_62 .def_103) (and (or .def_103 (= M_2 .def_37)) (and (or .def_63 .def_103) (and (= (+ J_3 (* (- 1) .y.21)) (- 1)) (and .def_100 (and .def_96 (and .def_93 (and .def_90 (and .def_83 (and .def_34 (and .loc.14 (and (or (and J_2 K_2) (and G_2 H_2)) (and .def_69 (and (or J_2 .def_133) (and (or .def_103 (and J_2 B_3)) (and (or G_2 .def_137) (and (or .def_108 (and J_2 G_2)) (and (or .def_108 (= I_2 (= F_2 20))) (and (or .def_108 (or I_2 .def_137)) (and (or .def_108 (or L_2 .def_103)) (or .def_103 (or .def_133 (not L_2))))))))))))))))))))))))))))) .def_177)) .loc.24) (and (= .y.11 .y.20) (and (not (<= .y.19 0)) (and (not (<= .y.21 0)) (and (not (<= .y.22 0)) (and (= .y.15 0) (and (and .def_35 (and .def_34 .loc.23)) .def_193))))))) (and (= J_3 .y.21) (and (or (not (<= F_2 0)) (or .def_204 .def_205)) (and (or .def_50 (or .def_51 .def_137)) (and (or (or .def_205 (not .def_87)) (not B_3)) (and (or G_2 (or .def_137 .def_205)) (and (or (= L_3 O_0) .def_217) (and (or .def_108 .def_217) (and (or H_2 (and I_2 J_2)) (and (or .def_137 (= H_0 L_0)) (and (or .def_137 (= L_0 .y.18)) (and (or .def_137 (= H_0 (store L_3 M_2 20))) (and (or .def_137 (= (+ .y.11 (+ K_3 (* (- 1) M_2))) 0)) (and (or .def_66 .def_137) (and (or .def_137 (and I_2 H_2)) (and (or .def_205 (= G_2 (= F_3 10))) (and (or .def_205 (= D_3 E_2)) (and (or .def_205 (= (+ .y.11 (+ J_3 (* (- 1) F_2))) 0)) (and (or .def_205 (not .def_204)) (and (or .def_205 (and I_2 B_3)) (and (or I_2 .def_103) (and (= (+ .y.11 (* (- 1) .y.15)) (- 1)) (and (or .def_205 (= .y.17 (store E_3 F_2 F_3))) (and (or .def_217 (= O_0 .y.18)) (and .def_193 (and .def_177 (and .def_100 (and .def_96 (and .def_35 (and .loc.13 .loc.23))))))))))))))))))))))))))))))))))))))))))))))))))))))))) (state |.y.15| |.y.16| |.y.17| |.y.18| |.y.19| |.y.20| |.y.21| |.y.22| |.loc.23| |.loc.24| |.xtv.1| |.xtv.2| |.xtv.3| |.xtv.4| |.xtv.5| |.xtv.6| |.xtv.7| |.xtv.8| |.xtv.9| |.xtv.10| |.xtv.11| |.xtv.12| |.xtv.13| |.xtv.14|))))
(assert (forall ((|.y.11| Int) (|.y.12| Int) (|E_3| (Array Int Int)) (|L_3| (Array Int Int)) (|K_3| Int) (|D_3| Int) (|J_3| Int) (|A_4| Int) (|.loc.13| Bool) (|.loc.14| Bool) (|I_2| Bool) (|J_2| Bool) (|O_0| (Array Int Int)) (|F_3| Int) (|F_2| Int) (|B_3| Bool) (|E_2| Int) (|G_2| Bool) (|H_2| Bool) (|M_2| Int) (|H_0| (Array Int Int)) (|L_0| (Array Int Int)) (|L_2| Bool) (|K_2| Bool) (|.loc.23| Bool) (|.y.20| Int) (|.y.21| Int) (|.y.17| (Array Int Int)) (|.y.18| (Array Int Int)) (|.y.19| Int) (|.y.22| Int) (|.loc.24| Bool) (|.y.15| Int) (|.y.16| Int) (|.xtv.1| Bool) (|.xtv.2| Bool) (|.xtv.3| (Array Int Int)) (|.xtv.4| Int) (|.xtv.5| Int) (|.xtv.6| Bool) (|.xtv.7| Int) (|.xtv.8| Bool) (|.xtv.9| Bool) (|.xtv.10| Int) (|.xtv.11| (Array Int Int)) (|.xtv.12| (Array Int Int)) (|.xtv.13| Bool) (|.xtv.14| Bool)) (=> (state |.y.11| |.y.12| |E_3| |L_3| |K_3| |D_3| |J_3| |A_4| |.loc.13| |.loc.14| |I_2| |J_2| |O_0| |F_3| |F_2| |B_3| |E_2| |G_2| |H_2| |M_2| |H_0| |L_0| |L_2| |K_2|) (not (and .loc.13 .loc.14)))))
(check-sat)
